(declare-fun var0 () String)
(declare-fun var1 () String)
(declare-fun var2 () String)
(declare-fun var3 () String)
(declare-fun var4 () String)
(declare-fun var5 () String)
(assert (= var0 (str.++ "iq:EZ" (str.++ var1 (str.++ var2 "")))))
(assert (= var3 (str.++ "H_aH4" (str.++ var4 (str.++ var5 "")))))
(assert (= var0 var3))
(check-sat)